u120_00
150 120 48 51
42 0
69 0
67 1
57 1
93 2
90 3
38 0
36 2
45 3
42 4
33 4
79 5
27 4
57 5
44 4
84 6
86 7
92 8
46 6
38 7
85 9
33 8
82 10
73 11
49 9
70 11
59 10
23 1
57 12
72 12
74 13
69 13
33 14
42 14
28 14
46 14
30 15
64 15
29 15
74 16
41 16
49 17
55 17
98 18
80 19
32 16
25 7
38 17
82 20
30 18
35 19
39 20
57 21
84 21
62 22
50 22
55 23
27 19
30 22
36 23
20 2
78 24
47 23
26 15
45 24
41 25
58 25
98 26
91 27
96 28
73 29
84 30
37 25
93 31
91 32
43 26
73 29
85 33
81 34
79 35
71 36
80 37
76 36
83 38
41 27
78 39
70 35
23 8
42 28
87 40
43 30
84 41
60 33
55 31
49 32
78 42
73 43
62 34
36 37
44 38
94 44
69 39
32 37
96 45
70 42
84 46
58 40
78 47
25 20
80 48
58 41
66 43
83 49
24 24
98 50
60 46
42 44
43 45
43 47
39 48